<number of tasks>
50

<cycle time>
1000

<order strength>
0.604


<task times>
1 443
2 407
3 337
4 492
5 519
6 654
7 595
8 394
9 637
10 504
11 487
12 315
13 560
14 633
15 609
16 524
17 606
18 474
19 415
20 491
21 433
22 548
23 347
24 443
25 317
26 489
27 583
28 271
29 499
30 512
31 313
32 682
33 500
34 511
35 684
36 507
37 382
38 542
39 424
40 552
41 647
42 647
43 420
44 649
45 436
46 552
47 845
48 501
49 342
50 409

<precedence relations>
1,7
2,6
2,22
3,6
4,20
4,32
4,35
4,41
5,8
5,11
5,12
6,9
6,12
7,10
7,11
8,9
8,10
8,25
9,13
9,14
10,13
10,14
10,15
11,13
11,16
12,16
12,23
13,19
13,21
13,31
14,21
15,20
15,22
15,29
15,30
16,17
16,18
16,19
17,25
17,28
18,48
19,24
19,26
19,27
21,26
21,35
22,23
22,28
22,39
23,50
24,33
24,47
25,42
26,29
26,30
27,32
28,31
28,37
29,32
29,34
29,41
30,33
30,49
31,35
31,36
32,40
33,41
33,42
34,37
34,39
35,38
36,40
38,42
39,48
40,42
40,43
40,44
40,45
41,44
41,48
42,50
43,46
43,47
43,48
43,49

<end>
